p cnf 649 1613
a 1 2 3 4 5 6 7 8 9 10 11 12 13 14 15 16 17 18 19 20 21 22 23 24 25 26 27 28 29 30 31 32 33 34 35 36 37 38 39 40 41 42 43 44 45 46 47 48 49 50 51 52 53 54 55 56 57 58 59 60 61 62 63 64 65 66 67 68 69 70 71 72 73 74 75 76 77 78 79 80 81 82 83 84 85 86 87 88 89 90 91 92 93 94 95 96 97 98 99 100 101 102 103 104 105 106 107 108 109 110 111 112 113 114 115 116 117 118 119 120 121 122 123 124 125 126 127 128 0
e 129 130 131 132 133 134 135 136 137 138 139 140 141 142 143 144 145 146 147 148 149 150 151 152 153 154 155 156 157 158 159 160 161 162 163 164 165 166 167 168 169 170 171 172 173 174 175 176 177 178 179 180 181 182 183 184 185 186 187 188 189 190 191 192 193 194 195 196 197 198 199 200 201 202 203 204 205 206 207 208 209 210 211 212 213 214 215 216 217 218 219 220 221 222 223 224 225 226 227 228 229 230 231 232 233 234 235 236 237 238 239 240 241 242 243 244 245 246 247 248 249 250 251 252 253 254 255 256 257 258 259 260 261 262 263 264 265 266 267 268 269 270 271 272 273 274 275 276 277 278 279 280 281 282 283 284 285 286 287 288 289 290 291 292 293 294 295 296 297 298 299 300 301 302 303 304 305 306 307 308 309 310 311 312 313 314 315 316 317 318 319 320 321 322 323 324 325 326 327 328 329 330 331 332 333 334 335 336 337 338 339 340 341 342 343 344 345 346 347 348 349 350 351 352 353 354 355 356 357 358 359 360 361 362 363 364 365 366 367 368 369 370 371 372 373 374 375 376 377 378 379 380 381 382 383 384 385 386 387 388 389 390 391 392 393 394 395 396 397 398 399 400 401 402 403 404 405 406 407 408 409 410 411 412 413 414 415 416 417 418 419 420 421 422 423 424 425 426 427 428 429 430 431 432 433 434 435 436 437 438 439 440 441 442 443 444 445 446 447 448 449 450 451 452 453 454 455 456 457 458 459 460 461 462 463 464 465 466 467 468 469 470 471 472 473 474 475 476 477 478 479 480 481 482 483 484 485 486 487 488 489 490 491 492 493 494 495 496 497 498 499 500 501 502 503 504 505 506 507 508 509 510 511 512 513 514 515 516 517 518 519 520 521 522 523 524 525 526 527 528 529 530 531 532 533 534 535 536 537 538 539 540 541 542 543 544 545 546 547 548 549 550 551 552 553 554 555 556 557 558 559 560 561 562 563 564 565 566 567 568 569 570 571 572 573 574 575 576 577 578 579 580 581 582 583 584 585 586 587 588 589 590 591 592 593 594 595 596 597 598 599 600 601 602 603 604 605 606 607 608 609 610 611 612 613 614 615 616 617 618 619 620 621 622 623 624 625 626 627 628 629 630 631 632 633 634 635 636 637 638 639 640 641 642 643 644 645 646 647 0
129 1 -2 3 4 5 6 7 8 9 10 11 12 13 14 15 16 17 18 19 20 21 22 23 24 25 26 27 28 29 30 31 32 33 34 35 36 37 38 39 40 41 42 43 44 45 46 47 48 49 50 51 52 53 54 55 56 57 58 59 60 61 62 63 64 0
-129 -64 0
-129 -63 0
-129 -62 0
-129 -61 0
-129 -60 0
-129 -59 0
-129 -58 0
-129 -57 0
-129 -56 0
-129 -55 0
-129 -54 0
-129 -53 0
-129 -52 0
-129 -51 0
-129 -50 0
-129 -49 0
-129 -48 0
-129 -47 0
-129 -46 0
-129 -45 0
-129 -44 0
-129 -43 0
-129 -42 0
-129 -41 0
-129 -40 0
-129 -39 0
-129 -38 0
-129 -37 0
-129 -36 0
-129 -35 0
-129 -34 0
-129 -33 0
-129 -32 0
-129 -31 0
-129 -30 0
-129 -29 0
-129 -28 0
-129 -27 0
-129 -26 0
-129 -25 0
-129 -24 0
-129 -23 0
-129 -22 0
-129 -21 0
-129 -20 0
-129 -19 0
-129 -18 0
-129 -17 0
-129 -16 0
-129 -15 0
-129 -14 0
-129 -13 0
-129 -12 0
-129 -11 0
-129 -10 0
-129 -9 0
-129 -8 0
-129 -7 0
-129 -6 0
-129 -5 0
-129 -4 0
-129 -3 0
-129 2 0
-129 -1 0
130 -65 66 67 68 69 70 71 72 73 74 75 76 77 78 79 80 81 82 83 84 85 86 87 88 89 90 91 92 93 94 95 96 97 98 99 100 101 102 103 104 105 106 107 108 109 110 111 112 113 114 115 116 117 118 119 120 121 122 123 124 125 126 127 128 0
-130 -128 0
-130 -127 0
-130 -126 0
-130 -125 0
-130 -124 0
-130 -123 0
-130 -122 0
-130 -121 0
-130 -120 0
-130 -119 0
-130 -118 0
-130 -117 0
-130 -116 0
-130 -115 0
-130 -114 0
-130 -113 0
-130 -112 0
-130 -111 0
-130 -110 0
-130 -109 0
-130 -108 0
-130 -107 0
-130 -106 0
-130 -105 0
-130 -104 0
-130 -103 0
-130 -102 0
-130 -101 0
-130 -100 0
-130 -99 0
-130 -98 0
-130 -97 0
-130 -96 0
-130 -95 0
-130 -94 0
-130 -93 0
-130 -92 0
-130 -91 0
-130 -90 0
-130 -89 0
-130 -88 0
-130 -87 0
-130 -86 0
-130 -85 0
-130 -84 0
-130 -83 0
-130 -82 0
-130 -81 0
-130 -80 0
-130 -79 0
-130 -78 0
-130 -77 0
-130 -76 0
-130 -75 0
-130 -74 0
-130 -73 0
-130 -72 0
-130 -71 0
-130 -70 0
-130 -69 0
-130 -68 0
-130 -67 0
-130 -66 0
-130 65 0
131 -129 -130 0
-131 130 0
-131 129 0
132 1 -65 0
-132 -1 0
-132 65 0
133 1 0
133 -65 0
133 -132 0
-133 -1 65 132 0
134 2 -66 0
-134 -2 0
-134 66 0
135 -66 -133 0
-135 133 0
-135 66 0
136 2 -133 0
-136 133 0
-136 -2 0
137 -136 0
137 -135 0
137 -134 0
-137 134 135 136 0
138 3 -67 0
-138 -3 0
-138 67 0
139 -67 -137 0
-139 137 0
-139 67 0
140 3 -137 0
-140 137 0
-140 -3 0
141 -140 0
141 -139 0
141 -138 0
-141 138 139 140 0
142 4 -68 0
-142 -4 0
-142 68 0
143 -68 -141 0
-143 141 0
-143 68 0
144 4 -141 0
-144 141 0
-144 -4 0
145 -144 0
145 -143 0
145 -142 0
-145 142 143 144 0
146 5 -69 0
-146 -5 0
-146 69 0
147 -69 -145 0
-147 145 0
-147 69 0
148 5 -145 0
-148 145 0
-148 -5 0
149 -148 0
149 -147 0
149 -146 0
-149 146 147 148 0
150 6 -70 0
-150 -6 0
-150 70 0
151 -70 -149 0
-151 149 0
-151 70 0
152 6 -149 0
-152 149 0
-152 -6 0
153 -152 0
153 -151 0
153 -150 0
-153 150 151 152 0
154 7 -71 0
-154 -7 0
-154 71 0
155 -71 -153 0
-155 153 0
-155 71 0
156 7 -153 0
-156 153 0
-156 -7 0
157 -156 0
157 -155 0
157 -154 0
-157 154 155 156 0
158 8 -72 0
-158 -8 0
-158 72 0
159 -72 -157 0
-159 157 0
-159 72 0
160 8 -157 0
-160 157 0
-160 -8 0
161 -160 0
161 -159 0
161 -158 0
-161 158 159 160 0
162 9 -73 0
-162 -9 0
-162 73 0
163 -73 -161 0
-163 161 0
-163 73 0
164 9 -161 0
-164 161 0
-164 -9 0
165 -164 0
165 -163 0
165 -162 0
-165 162 163 164 0
166 10 -74 0
-166 -10 0
-166 74 0
167 -74 -165 0
-167 165 0
-167 74 0
168 10 -165 0
-168 165 0
-168 -10 0
169 -168 0
169 -167 0
169 -166 0
-169 166 167 168 0
170 11 -75 0
-170 -11 0
-170 75 0
171 -75 -169 0
-171 169 0
-171 75 0
172 11 -169 0
-172 169 0
-172 -11 0
173 -172 0
173 -171 0
173 -170 0
-173 170 171 172 0
174 12 -76 0
-174 -12 0
-174 76 0
175 -76 -173 0
-175 173 0
-175 76 0
176 12 -173 0
-176 173 0
-176 -12 0
177 -176 0
177 -175 0
177 -174 0
-177 174 175 176 0
178 13 -77 0
-178 -13 0
-178 77 0
179 -77 -177 0
-179 177 0
-179 77 0
180 13 -177 0
-180 177 0
-180 -13 0
181 -180 0
181 -179 0
181 -178 0
-181 178 179 180 0
182 14 -78 0
-182 -14 0
-182 78 0
183 -78 -181 0
-183 181 0
-183 78 0
184 14 -181 0
-184 181 0
-184 -14 0
185 -184 0
185 -183 0
185 -182 0
-185 182 183 184 0
186 15 -79 0
-186 -15 0
-186 79 0
187 -79 -185 0
-187 185 0
-187 79 0
188 15 -185 0
-188 185 0
-188 -15 0
189 -188 0
189 -187 0
189 -186 0
-189 186 187 188 0
190 16 -80 0
-190 -16 0
-190 80 0
191 -80 -189 0
-191 189 0
-191 80 0
192 16 -189 0
-192 189 0
-192 -16 0
193 -192 0
193 -191 0
193 -190 0
-193 190 191 192 0
194 17 -81 0
-194 -17 0
-194 81 0
195 -81 -193 0
-195 193 0
-195 81 0
196 17 -193 0
-196 193 0
-196 -17 0
197 -196 0
197 -195 0
197 -194 0
-197 194 195 196 0
198 18 -82 0
-198 -18 0
-198 82 0
199 -82 -197 0
-199 197 0
-199 82 0
200 18 -197 0
-200 197 0
-200 -18 0
201 -200 0
201 -199 0
201 -198 0
-201 198 199 200 0
202 19 -83 0
-202 -19 0
-202 83 0
203 -83 -201 0
-203 201 0
-203 83 0
204 19 -201 0
-204 201 0
-204 -19 0
205 -204 0
205 -203 0
205 -202 0
-205 202 203 204 0
206 20 -84 0
-206 -20 0
-206 84 0
207 -84 -205 0
-207 205 0
-207 84 0
208 20 -205 0
-208 205 0
-208 -20 0
209 -208 0
209 -207 0
209 -206 0
-209 206 207 208 0
210 21 -85 0
-210 -21 0
-210 85 0
211 -85 -209 0
-211 209 0
-211 85 0
212 21 -209 0
-212 209 0
-212 -21 0
213 -212 0
213 -211 0
213 -210 0
-213 210 211 212 0
214 22 -86 0
-214 -22 0
-214 86 0
215 -86 -213 0
-215 213 0
-215 86 0
216 22 -213 0
-216 213 0
-216 -22 0
217 -216 0
217 -215 0
217 -214 0
-217 214 215 216 0
218 23 -87 0
-218 -23 0
-218 87 0
219 -87 -217 0
-219 217 0
-219 87 0
220 23 -217 0
-220 217 0
-220 -23 0
221 -220 0
221 -219 0
221 -218 0
-221 218 219 220 0
222 24 -88 0
-222 -24 0
-222 88 0
223 -88 -221 0
-223 221 0
-223 88 0
224 24 -221 0
-224 221 0
-224 -24 0
225 -224 0
225 -223 0
225 -222 0
-225 222 223 224 0
226 25 -89 0
-226 -25 0
-226 89 0
227 -89 -225 0
-227 225 0
-227 89 0
228 25 -225 0
-228 225 0
-228 -25 0
229 -228 0
229 -227 0
229 -226 0
-229 226 227 228 0
230 26 -90 0
-230 -26 0
-230 90 0
231 -90 -229 0
-231 229 0
-231 90 0
232 26 -229 0
-232 229 0
-232 -26 0
233 -232 0
233 -231 0
233 -230 0
-233 230 231 232 0
234 27 -91 0
-234 -27 0
-234 91 0
235 -91 -233 0
-235 233 0
-235 91 0
236 27 -233 0
-236 233 0
-236 -27 0
237 -236 0
237 -235 0
237 -234 0
-237 234 235 236 0
238 28 -92 0
-238 -28 0
-238 92 0
239 -92 -237 0
-239 237 0
-239 92 0
240 28 -237 0
-240 237 0
-240 -28 0
241 -240 0
241 -239 0
241 -238 0
-241 238 239 240 0
242 29 -93 0
-242 -29 0
-242 93 0
243 -93 -241 0
-243 241 0
-243 93 0
244 29 -241 0
-244 241 0
-244 -29 0
245 -244 0
245 -243 0
245 -242 0
-245 242 243 244 0
246 30 -94 0
-246 -30 0
-246 94 0
247 -94 -245 0
-247 245 0
-247 94 0
248 30 -245 0
-248 245 0
-248 -30 0
249 -248 0
249 -247 0
249 -246 0
-249 246 247 248 0
250 31 -95 0
-250 -31 0
-250 95 0
251 -95 -249 0
-251 249 0
-251 95 0
252 31 -249 0
-252 249 0
-252 -31 0
253 -252 0
253 -251 0
253 -250 0
-253 250 251 252 0
254 32 -96 0
-254 -32 0
-254 96 0
255 -96 -253 0
-255 253 0
-255 96 0
256 32 -253 0
-256 253 0
-256 -32 0
257 -256 0
257 -255 0
257 -254 0
-257 254 255 256 0
258 33 -97 0
-258 -33 0
-258 97 0
259 -97 -257 0
-259 257 0
-259 97 0
260 33 -257 0
-260 257 0
-260 -33 0
261 -260 0
261 -259 0
261 -258 0
-261 258 259 260 0
262 34 -98 0
-262 -34 0
-262 98 0
263 -98 -261 0
-263 261 0
-263 98 0
264 34 -261 0
-264 261 0
-264 -34 0
265 -264 0
265 -263 0
265 -262 0
-265 262 263 264 0
266 35 -99 0
-266 -35 0
-266 99 0
267 -99 -265 0
-267 265 0
-267 99 0
268 35 -265 0
-268 265 0
-268 -35 0
269 -268 0
269 -267 0
269 -266 0
-269 266 267 268 0
270 36 -100 0
-270 -36 0
-270 100 0
271 -100 -269 0
-271 269 0
-271 100 0
272 36 -269 0
-272 269 0
-272 -36 0
273 -272 0
273 -271 0
273 -270 0
-273 270 271 272 0
274 37 -101 0
-274 -37 0
-274 101 0
275 -101 -273 0
-275 273 0
-275 101 0
276 37 -273 0
-276 273 0
-276 -37 0
277 -276 0
277 -275 0
277 -274 0
-277 274 275 276 0
278 38 -102 0
-278 -38 0
-278 102 0
279 -102 -277 0
-279 277 0
-279 102 0
280 38 -277 0
-280 277 0
-280 -38 0
281 -280 0
281 -279 0
281 -278 0
-281 278 279 280 0
282 39 -103 0
-282 -39 0
-282 103 0
283 -103 -281 0
-283 281 0
-283 103 0
284 39 -281 0
-284 281 0
-284 -39 0
285 -284 0
285 -283 0
285 -282 0
-285 282 283 284 0
286 40 -104 0
-286 -40 0
-286 104 0
287 -104 -285 0
-287 285 0
-287 104 0
288 40 -285 0
-288 285 0
-288 -40 0
289 -288 0
289 -287 0
289 -286 0
-289 286 287 288 0
290 41 -105 0
-290 -41 0
-290 105 0
291 -105 -289 0
-291 289 0
-291 105 0
292 41 -289 0
-292 289 0
-292 -41 0
293 -292 0
293 -291 0
293 -290 0
-293 290 291 292 0
294 42 -106 0
-294 -42 0
-294 106 0
295 -106 -293 0
-295 293 0
-295 106 0
296 42 -293 0
-296 293 0
-296 -42 0
297 -296 0
297 -295 0
297 -294 0
-297 294 295 296 0
298 43 -107 0
-298 -43 0
-298 107 0
299 -107 -297 0
-299 297 0
-299 107 0
300 43 -297 0
-300 297 0
-300 -43 0
301 -300 0
301 -299 0
301 -298 0
-301 298 299 300 0
302 44 -108 0
-302 -44 0
-302 108 0
303 -108 -301 0
-303 301 0
-303 108 0
304 44 -301 0
-304 301 0
-304 -44 0
305 -304 0
305 -303 0
305 -302 0
-305 302 303 304 0
306 45 -109 0
-306 -45 0
-306 109 0
307 -109 -305 0
-307 305 0
-307 109 0
308 45 -305 0
-308 305 0
-308 -45 0
309 -308 0
309 -307 0
309 -306 0
-309 306 307 308 0
310 46 -110 0
-310 -46 0
-310 110 0
311 -110 -309 0
-311 309 0
-311 110 0
312 46 -309 0
-312 309 0
-312 -46 0
313 -312 0
313 -311 0
313 -310 0
-313 310 311 312 0
314 47 -111 0
-314 -47 0
-314 111 0
315 -111 -313 0
-315 313 0
-315 111 0
316 47 -313 0
-316 313 0
-316 -47 0
317 -316 0
317 -315 0
317 -314 0
-317 314 315 316 0
318 48 -112 0
-318 -48 0
-318 112 0
319 -112 -317 0
-319 317 0
-319 112 0
320 48 -317 0
-320 317 0
-320 -48 0
321 -320 0
321 -319 0
321 -318 0
-321 318 319 320 0
322 49 -113 0
-322 -49 0
-322 113 0
323 -113 -321 0
-323 321 0
-323 113 0
324 49 -321 0
-324 321 0
-324 -49 0
325 -324 0
325 -323 0
325 -322 0
-325 322 323 324 0
326 50 -114 0
-326 -50 0
-326 114 0
327 -114 -325 0
-327 325 0
-327 114 0
328 50 -325 0
-328 325 0
-328 -50 0
329 -328 0
329 -327 0
329 -326 0
-329 326 327 328 0
330 51 -115 0
-330 -51 0
-330 115 0
331 -115 -329 0
-331 329 0
-331 115 0
332 51 -329 0
-332 329 0
-332 -51 0
333 -332 0
333 -331 0
333 -330 0
-333 330 331 332 0
334 52 -116 0
-334 -52 0
-334 116 0
335 -116 -333 0
-335 333 0
-335 116 0
336 52 -333 0
-336 333 0
-336 -52 0
337 -336 0
337 -335 0
337 -334 0
-337 334 335 336 0
338 53 -117 0
-338 -53 0
-338 117 0
339 -117 -337 0
-339 337 0
-339 117 0
340 53 -337 0
-340 337 0
-340 -53 0
341 -340 0
341 -339 0
341 -338 0
-341 338 339 340 0
342 54 -118 0
-342 -54 0
-342 118 0
343 -118 -341 0
-343 341 0
-343 118 0
344 54 -341 0
-344 341 0
-344 -54 0
345 -344 0
345 -343 0
345 -342 0
-345 342 343 344 0
346 55 -119 0
-346 -55 0
-346 119 0
347 -119 -345 0
-347 345 0
-347 119 0
348 55 -345 0
-348 345 0
-348 -55 0
349 -348 0
349 -347 0
349 -346 0
-349 346 347 348 0
350 56 -120 0
-350 -56 0
-350 120 0
351 -120 -349 0
-351 349 0
-351 120 0
352 56 -349 0
-352 349 0
-352 -56 0
353 -352 0
353 -351 0
353 -350 0
-353 350 351 352 0
354 57 -121 0
-354 -57 0
-354 121 0
355 -121 -353 0
-355 353 0
-355 121 0
356 57 -353 0
-356 353 0
-356 -57 0
357 -356 0
357 -355 0
357 -354 0
-357 354 355 356 0
358 58 -122 0
-358 -58 0
-358 122 0
359 -122 -357 0
-359 357 0
-359 122 0
360 58 -357 0
-360 357 0
-360 -58 0
361 -360 0
361 -359 0
361 -358 0
-361 358 359 360 0
362 59 -123 0
-362 -59 0
-362 123 0
363 -123 -361 0
-363 361 0
-363 123 0
364 59 -361 0
-364 361 0
-364 -59 0
365 -364 0
365 -363 0
365 -362 0
-365 362 363 364 0
366 60 -124 0
-366 -60 0
-366 124 0
367 -124 -365 0
-367 365 0
-367 124 0
368 60 -365 0
-368 365 0
-368 -60 0
369 -368 0
369 -367 0
369 -366 0
-369 366 367 368 0
370 61 -125 0
-370 -61 0
-370 125 0
371 -125 -369 0
-371 369 0
-371 125 0
372 61 -369 0
-372 369 0
-372 -61 0
373 -372 0
373 -371 0
373 -370 0
-373 370 371 372 0
374 62 -126 0
-374 -62 0
-374 126 0
375 -126 -373 0
-375 373 0
-375 126 0
376 62 -373 0
-376 373 0
-376 -62 0
377 -376 0
377 -375 0
377 -374 0
-377 374 375 376 0
378 63 -127 0
-378 -63 0
-378 127 0
379 -127 -377 0
-379 377 0
-379 127 0
380 63 -377 0
-380 377 0
-380 -63 0
381 -380 0
381 -379 0
381 -378 0
-381 378 379 380 0
382 64 -128 0
-382 -64 0
-382 128 0
383 -128 -381 0
-383 381 0
-383 128 0
384 64 -381 0
-384 381 0
-384 -64 0
385 -384 0
385 -383 0
385 -382 0
-385 382 383 384 0
386 -64 128 0
386 64 -128 0
-386 64 128 0
-386 -64 -128 0
387 -131 0
387 -385 -386 0
387 385 386 0
-387 385 -386 0
-387 -385 386 0
389 0
-389 -387 -388 0
390 1 -65 0
390 -1 65 0
-390 1 65 0
-390 -1 -65 0
391 2 -66 0
391 -2 66 0
-391 2 66 0
-391 -2 -66 0
392 3 -67 0
392 -3 67 0
-392 3 67 0
-392 -3 -67 0
393 4 -68 0
393 -4 68 0
-393 4 68 0
-393 -4 -68 0
394 5 -69 0
394 -5 69 0
-394 5 69 0
-394 -5 -69 0
395 6 -70 0
395 -6 70 0
-395 6 70 0
-395 -6 -70 0
396 7 -71 0
396 -7 71 0
-396 7 71 0
-396 -7 -71 0
397 8 -72 0
397 -8 72 0
-397 8 72 0
-397 -8 -72 0
398 9 -73 0
398 -9 73 0
-398 9 73 0
-398 -9 -73 0
399 10 -74 0
399 -10 74 0
-399 10 74 0
-399 -10 -74 0
400 11 -75 0
400 -11 75 0
-400 11 75 0
-400 -11 -75 0
401 12 -76 0
401 -12 76 0
-401 12 76 0
-401 -12 -76 0
402 13 -77 0
402 -13 77 0
-402 13 77 0
-402 -13 -77 0
403 14 -78 0
403 -14 78 0
-403 14 78 0
-403 -14 -78 0
404 15 -79 0
404 -15 79 0
-404 15 79 0
-404 -15 -79 0
405 16 -80 0
405 -16 80 0
-405 16 80 0
-405 -16 -80 0
406 17 -81 0
406 -17 81 0
-406 17 81 0
-406 -17 -81 0
407 18 -82 0
407 -18 82 0
-407 18 82 0
-407 -18 -82 0
408 19 -83 0
408 -19 83 0
-408 19 83 0
-408 -19 -83 0
409 20 -84 0
409 -20 84 0
-409 20 84 0
-409 -20 -84 0
410 21 -85 0
410 -21 85 0
-410 21 85 0
-410 -21 -85 0
411 22 -86 0
411 -22 86 0
-411 22 86 0
-411 -22 -86 0
412 23 -87 0
412 -23 87 0
-412 23 87 0
-412 -23 -87 0
413 24 -88 0
413 -24 88 0
-413 24 88 0
-413 -24 -88 0
414 25 -89 0
414 -25 89 0
-414 25 89 0
-414 -25 -89 0
415 26 -90 0
415 -26 90 0
-415 26 90 0
-415 -26 -90 0
416 27 -91 0
416 -27 91 0
-416 27 91 0
-416 -27 -91 0
417 28 -92 0
417 -28 92 0
-417 28 92 0
-417 -28 -92 0
418 29 -93 0
418 -29 93 0
-418 29 93 0
-418 -29 -93 0
419 30 -94 0
419 -30 94 0
-419 30 94 0
-419 -30 -94 0
420 31 -95 0
420 -31 95 0
-420 31 95 0
-420 -31 -95 0
421 32 -96 0
421 -32 96 0
-421 32 96 0
-421 -32 -96 0
422 33 -97 0
422 -33 97 0
-422 33 97 0
-422 -33 -97 0
423 34 -98 0
423 -34 98 0
-423 34 98 0
-423 -34 -98 0
424 35 -99 0
424 -35 99 0
-424 35 99 0
-424 -35 -99 0
425 36 -100 0
425 -36 100 0
-425 36 100 0
-425 -36 -100 0
426 37 -101 0
426 -37 101 0
-426 37 101 0
-426 -37 -101 0
427 38 -102 0
427 -38 102 0
-427 38 102 0
-427 -38 -102 0
428 39 -103 0
428 -39 103 0
-428 39 103 0
-428 -39 -103 0
429 40 -104 0
429 -40 104 0
-429 40 104 0
-429 -40 -104 0
430 41 -105 0
430 -41 105 0
-430 41 105 0
-430 -41 -105 0
431 42 -106 0
431 -42 106 0
-431 42 106 0
-431 -42 -106 0
432 43 -107 0
432 -43 107 0
-432 43 107 0
-432 -43 -107 0
433 44 -108 0
433 -44 108 0
-433 44 108 0
-433 -44 -108 0
434 45 -109 0
434 -45 109 0
-434 45 109 0
-434 -45 -109 0
435 46 -110 0
435 -46 110 0
-435 46 110 0
-435 -46 -110 0
436 47 -111 0
436 -47 111 0
-436 47 111 0
-436 -47 -111 0
437 48 -112 0
437 -48 112 0
-437 48 112 0
-437 -48 -112 0
438 49 -113 0
438 -49 113 0
-438 49 113 0
-438 -49 -113 0
439 50 -114 0
439 -50 114 0
-439 50 114 0
-439 -50 -114 0
440 51 -115 0
440 -51 115 0
-440 51 115 0
-440 -51 -115 0
441 52 -116 0
441 -52 116 0
-441 52 116 0
-441 -52 -116 0
442 53 -117 0
442 -53 117 0
-442 53 117 0
-442 -53 -117 0
443 54 -118 0
443 -54 118 0
-443 54 118 0
-443 -54 -118 0
444 55 -119 0
444 -55 119 0
-444 55 119 0
-444 -55 -119 0
445 56 -120 0
445 -56 120 0
-445 56 120 0
-445 -56 -120 0
446 57 -121 0
446 -57 121 0
-446 57 121 0
-446 -57 -121 0
447 58 -122 0
447 -58 122 0
-447 58 122 0
-447 -58 -122 0
448 59 -123 0
448 -59 123 0
-448 59 123 0
-448 -59 -123 0
449 60 -124 0
449 -60 124 0
-449 60 124 0
-449 -60 -124 0
450 61 -125 0
450 -61 125 0
-450 61 125 0
-450 -61 -125 0
451 62 -126 0
451 -62 126 0
-451 62 126 0
-451 -62 -126 0
452 63 -127 0
452 -63 127 0
-452 63 127 0
-452 -63 -127 0
453 64 -128 0
453 -64 128 0
-453 64 128 0
-453 -64 -128 0
454 390 391 392 393 394 395 396 397 398 399 400 401 402 403 404 405 406 407 408 409 410 411 412 413 414 415 416 417 418 419 420 421 422 423 424 425 426 427 428 429 430 431 432 433 434 435 436 437 438 439 440 441 442 443 444 445 446 447 448 449 450 451 452 453 0
-454 -453 0
-454 -452 0
-454 -451 0
-454 -450 0
-454 -449 0
-454 -448 0
-454 -447 0
-454 -446 0
-454 -445 0
-454 -444 0
-454 -443 0
-454 -442 0
-454 -441 0
-454 -440 0
-454 -439 0
-454 -438 0
-454 -437 0
-454 -436 0
-454 -435 0
-454 -434 0
-454 -433 0
-454 -432 0
-454 -431 0
-454 -430 0
-454 -429 0
-454 -428 0
-454 -427 0
-454 -426 0
-454 -425 0
-454 -424 0
-454 -423 0
-454 -422 0
-454 -421 0
-454 -420 0
-454 -419 0
-454 -418 0
-454 -417 0
-454 -416 0
-454 -415 0
-454 -414 0
-454 -413 0
-454 -412 0
-454 -411 0
-454 -410 0
-454 -409 0
-454 -408 0
-454 -407 0
-454 -406 0
-454 -405 0
-454 -404 0
-454 -403 0
-454 -402 0
-454 -401 0
-454 -400 0
-454 -399 0
-454 -398 0
-454 -397 0
-454 -396 0
-454 -395 0
-454 -394 0
-454 -393 0
-454 -392 0
-454 -391 0
-454 -390 0
583 455 -519 0
583 -455 519 0
-583 455 519 0
-583 -455 -519 0
584 456 -520 0
584 -456 520 0
-584 456 520 0
-584 -456 -520 0
585 457 -521 0
585 -457 521 0
-585 457 521 0
-585 -457 -521 0
586 458 -522 0
586 -458 522 0
-586 458 522 0
-586 -458 -522 0
587 459 -523 0
587 -459 523 0
-587 459 523 0
-587 -459 -523 0
588 460 -524 0
588 -460 524 0
-588 460 524 0
-588 -460 -524 0
589 461 -525 0
589 -461 525 0
-589 461 525 0
-589 -461 -525 0
590 462 -526 0
590 -462 526 0
-590 462 526 0
-590 -462 -526 0
591 463 -527 0
591 -463 527 0
-591 463 527 0
-591 -463 -527 0
592 464 -528 0
592 -464 528 0
-592 464 528 0
-592 -464 -528 0
593 465 -529 0
593 -465 529 0
-593 465 529 0
-593 -465 -529 0
594 466 -530 0
594 -466 530 0
-594 466 530 0
-594 -466 -530 0
595 467 -531 0
595 -467 531 0
-595 467 531 0
-595 -467 -531 0
596 468 -532 0
596 -468 532 0
-596 468 532 0
-596 -468 -532 0
597 469 -533 0
597 -469 533 0
-597 469 533 0
-597 -469 -533 0
598 470 -534 0
598 -470 534 0
-598 470 534 0
-598 -470 -534 0
599 471 -535 0
599 -471 535 0
-599 471 535 0
-599 -471 -535 0
600 472 -536 0
600 -472 536 0
-600 472 536 0
-600 -472 -536 0
601 473 -537 0
601 -473 537 0
-601 473 537 0
-601 -473 -537 0
602 474 -538 0
602 -474 538 0
-602 474 538 0
-602 -474 -538 0
603 475 -539 0
603 -475 539 0
-603 475 539 0
-603 -475 -539 0
604 476 -540 0
604 -476 540 0
-604 476 540 0
-604 -476 -540 0
605 477 -541 0
605 -477 541 0
-605 477 541 0
-605 -477 -541 0
606 478 -542 0
606 -478 542 0
-606 478 542 0
-606 -478 -542 0
607 479 -543 0
607 -479 543 0
-607 479 543 0
-607 -479 -543 0
608 480 -544 0
608 -480 544 0
-608 480 544 0
-608 -480 -544 0
609 481 -545 0
609 -481 545 0
-609 481 545 0
-609 -481 -545 0
610 482 -546 0
610 -482 546 0
-610 482 546 0
-610 -482 -546 0
611 483 -547 0
611 -483 547 0
-611 483 547 0
-611 -483 -547 0
612 484 -548 0
612 -484 548 0
-612 484 548 0
-612 -484 -548 0
613 485 -549 0
613 -485 549 0
-613 485 549 0
-613 -485 -549 0
614 486 -550 0
614 -486 550 0
-614 486 550 0
-614 -486 -550 0
615 487 -551 0
615 -487 551 0
-615 487 551 0
-615 -487 -551 0
616 488 -552 0
616 -488 552 0
-616 488 552 0
-616 -488 -552 0
617 489 -553 0
617 -489 553 0
-617 489 553 0
-617 -489 -553 0
618 490 -554 0
618 -490 554 0
-618 490 554 0
-618 -490 -554 0
619 491 -555 0
619 -491 555 0
-619 491 555 0
-619 -491 -555 0
620 492 -556 0
620 -492 556 0
-620 492 556 0
-620 -492 -556 0
621 493 -557 0
621 -493 557 0
-621 493 557 0
-621 -493 -557 0
622 494 -558 0
622 -494 558 0
-622 494 558 0
-622 -494 -558 0
623 495 -559 0
623 -495 559 0
-623 495 559 0
-623 -495 -559 0
624 496 -560 0
624 -496 560 0
-624 496 560 0
-624 -496 -560 0
625 497 -561 0
625 -497 561 0
-625 497 561 0
-625 -497 -561 0
626 498 -562 0
626 -498 562 0
-626 498 562 0
-626 -498 -562 0
627 499 -563 0
627 -499 563 0
-627 499 563 0
-627 -499 -563 0
628 500 -564 0
628 -500 564 0
-628 500 564 0
-628 -500 -564 0
629 501 -565 0
629 -501 565 0
-629 501 565 0
-629 -501 -565 0
630 502 -566 0
630 -502 566 0
-630 502 566 0
-630 -502 -566 0
631 503 -567 0
631 -503 567 0
-631 503 567 0
-631 -503 -567 0
632 504 -568 0
632 -504 568 0
-632 504 568 0
-632 -504 -568 0
633 505 -569 0
633 -505 569 0
-633 505 569 0
-633 -505 -569 0
634 506 -570 0
634 -506 570 0
-634 506 570 0
-634 -506 -570 0
635 507 -571 0
635 -507 571 0
-635 507 571 0
-635 -507 -571 0
636 508 -572 0
636 -508 572 0
-636 508 572 0
-636 -508 -572 0
637 509 -573 0
637 -509 573 0
-637 509 573 0
-637 -509 -573 0
638 510 -574 0
638 -510 574 0
-638 510 574 0
-638 -510 -574 0
639 511 -575 0
639 -511 575 0
-639 511 575 0
-639 -511 -575 0
640 512 -576 0
640 -512 576 0
-640 512 576 0
-640 -512 -576 0
641 513 -577 0
641 -513 577 0
-641 513 577 0
-641 -513 -577 0
642 514 -578 0
642 -514 578 0
-642 514 578 0
-642 -514 -578 0
643 515 -579 0
643 -515 579 0
-643 515 579 0
-643 -515 -579 0
644 516 -580 0
644 -516 580 0
-644 516 580 0
-644 -516 -580 0
645 517 -581 0
645 -517 581 0
-645 517 581 0
-645 -517 -581 0
646 518 -582 0
646 -518 582 0
-646 518 582 0
-646 -518 -582 0
647 -454 0
647 583 584 585 586 587 588 589 590 591 592 593 594 595 596 597 598 599 600 601 602 603 604 605 606 607 608 609 610 611 612 613 614 615 616 617 618 619 620 621 622 623 624 625 626 627 628 629 630 631 632 633 634 635 636 637 638 639 640 641 642 643 644 645 646 0
-647 -646 0
-647 -645 0
-647 -644 0
-647 -643 0
-647 -642 0
-647 -641 0
-647 -640 0
-647 -639 0
-647 -638 0
-647 -637 0
-647 -636 0
-647 -635 0
-647 -634 0
-647 -633 0
-647 -632 0
-647 -631 0
-647 -630 0
-647 -629 0
-647 -628 0
-647 -627 0
-647 -626 0
-647 -625 0
-647 -624 0
-647 -623 0
-647 -622 0
-647 -621 0
-647 -620 0
-647 -619 0
-647 -618 0
-647 -617 0
-647 -616 0
-647 -615 0
-647 -614 0
-647 -613 0
-647 -612 0
-647 -611 0
-647 -610 0
-647 -609 0
-647 -608 0
-647 -607 0
-647 -606 0
-647 -605 0
-647 -604 0
-647 -603 0
-647 -602 0
-647 -601 0
-647 -600 0
-647 -599 0
-647 -598 0
-647 -597 0
-647 -596 0
-647 -595 0
-647 -594 0
-647 -593 0
-647 -592 0
-647 -591 0
-647 -590 0
-647 -589 0
-647 -588 0
-647 -587 0
-647 -586 0
-647 -585 0
-647 -584 0
-647 -583 0
